NAME: tsp_306
COMMENT: Random TSP instance
TYPE: TSP
DIMENSION: 50
EDGE_WEIGHT_TYPE: EUC_2D
NODE_COORD_SECTION
1 888 655
2 680 874
3 560 404
4 429 186
5 98 407
6 250 592
7 210 591
8 657 529
9 459 486
10 474 325
11 708 986
12 71 139
13 977 728
14 492 925
15 117 571
16 136 939
17 370 963
18 907 992
19 577 875
20 283 165
21 79 584
22 491 476
23 354 251
24 690 419
25 201 486
26 22 69
27 556 706
28 728 312
29 584 164
30 804 124
31 768 50
32 468 860
33 451 445
34 26 431
35 986 435
36 487 565
37 365 982
38 693 77
39 138 710
40 232 868
41 696 950
42 420 318
43 830 161
44 246 754
45 679 4
46 931 739
47 54 500
48 526 901
49 412 32
50 332 825
